;; ===================== PROJECTED CANON (QE) =====================
;; Each clause below is entailed by Proj = ∃W.F over the canonical vocabulary.
;; Units appear first for clarity; OR-clauses (SAT-filtered) follow.
;; ==================================================================

;; Unit Bool constraints (entailed)
(assert (not patient_has_diagnosis_of_allergic_rhinitis_now))
(assert (not patient_has_diagnosis_of_bacterial_respiratory_infection_now))
